434 435 436 438 437 430 429 428 427 426 423 421 420 422 424 425 382 386 387 388 391 392 393 394 395 396 371 372 373 322 323 324 325 326 327 328 329 366 342 365 367 368 369 370 398 397 399 400 401 402 403 404 405 406 407 408 409 385 383 384 410 418 419 417 416 415 414 413 411 412 356 355 353 352 351 350 347 348 349 354 357 358 359 360 361 362 363 364 346 345 344 343 341 340 330 331 332 333 339 338 337 336 335 334 283 284 285 286 287 280 281 282 279 278 277 276 288 289 290 275 274 273 272 271 267 268 269 270 292 291 293 294 295 296 297 298 299 265 266 264 263 262 258 259 261 260 256 255 253 254 252 251 250 249 248 257 300 319 320 321 317 318 305 306 304 303 307 308 505 504 503 502 517 516 515 514 513 527 512 511 510 509 506 507 508 302 301 241 242 243 244 245 247 246 238 239 240 237 236 235 234 232 233 530 531 532 489 488 533 231 230 229 228 227 189 225 226 190 191 192 193 219 218 220 221 222 224 223 217 216 215 214 213 212 211 210 209 194 195 196 205 206 207 208 203 204 202 201 200 199 198 197 184 185 183 181 180 179 182 186 188 187 178 177 176 540 538 539 537 536 535 534 487 486 485 484 483 480 479 478 477 476 475 481 482 493 492 491 490 529 528 526 525 524 523 522 521 520 519 518 495 494 472 471 470 496 497 498 501 500 499 453 452 461 459 460 462 463 464 465 466 467 468 469 473 474 570 569 568 567 566 565 564 563 562 561 560 549 548 545 546 547 544 543 541 542 107 106 105 104 103 102 101 551 550 559 558 557 556 555 45 46 91 92 90 85 86 87 88 89 93 94 97 554 553 552 100 99 98 96 95 118 119 120 121 122 117 126 125 127 128 116 115 114 112 111 110 109 108 173 174 175 172 170 171 169 168 162 163 167 166 164 165 154 153 147 148 152 149 150 151 142 143 144 146 145 158 157 159 156 155 160 161 113 131 132 133 130 129 137 134 135 136 141 140 139 138 124 69 70 68 67 66 65 72 71 123 73 74 75 77 76 64 63 60 61 62 78 79 80 81 59 58 57 82 83 84 51 50 52 54 53 56 55 49 48 47 44 43 42 39 41 40 38 37 36 35 34 33 32 30 31 29 28 27 26 25 24 21 22 23 12 13 20 19 18 17 16 15 14 11 10 9 8 7 6 5 4 3 2 1 0 573 572 571 458 457 456 455 454 439 443 444 445 442 446 447 448 449 440 441 450 451 312 311 310 309 313 316 314 315 374 375 376 377 378 379 380 381 390 389 431 432 433